\ENCODING=ISO-8859-1
\Problem name: 

Minimize
 obj: 11 y_0,1 + 52 y_0,2 + 31 y_0,3 + y_0,4 + 11 y_1,0 + 35 y_1,2 + 67 y_1,3
      + 11 y_1,4 + 52 y_2,0 + 35 y_2,1 + 46 y_2,3 + 59 y_2,4 + 31 y_3,0
      + 67 y_3,1 + 46 y_3,2 + 42 y_3,4 + y_4,0 + 11 y_4,1 + 59 y_4,2 + 42 y_4,3
Subject To
 flux:    x_0,1 + x_0,2 + x_0,3 + x_0,4  = 5
 delta_2: x_0,1 - x_1,0 - x_1,2 - x_1,3 - x_1,4 + x_2,1 + x_3,1 + x_4,1  = 1
 delta_3: x_0,2 + x_1,2 - x_2,0 - x_2,1 - x_2,3 - x_2,4 + x_3,2 + x_4,2  = 1
 delta_4: x_0,3 + x_1,3 + x_2,3 - x_3,0 - x_3,1 - x_3,2 - x_3,4 + x_4,3  = 1
 delta_5: x_0,4 + x_1,4 + x_2,4 + x_3,4 - x_4,0 - x_4,1 - x_4,2 - x_4,3  = 1
 out_1:   y_0,1 + y_0,2 + y_0,3 + y_0,4  = 1
 out_2:   y_1,0 + y_1,2 + y_1,3 + y_1,4  = 1
 out_3:   y_2,0 + y_2,1 + y_2,3 + y_2,4  = 1
 out_4:   y_3,0 + y_3,1 + y_3,2 + y_3,4  = 1
 out_5:   y_4,0 + y_4,1 + y_4,2 + y_4,3  = 1
 in_1:    y_1,0 + y_2,0 + y_3,0 + y_4,0  = 1
 in_2:    y_0,1 + y_2,1 + y_3,1 + y_4,1  = 1
 in_3:    y_0,2 + y_1,2 + y_3,2 + y_4,2  = 1
 in_4:    y_0,3 + y_1,3 + y_2,3 + y_4,3  = 1
 in_5:    y_0,4 + y_1,4 + y_2,4 + y_3,4  = 1
 att_0_1: x_0,1 - 5 y_0,1 <= 0
 att_0_2: x_0,2 - 5 y_0,2 <= 0
 att_0_3: x_0,3 - 5 y_0,3 <= 0
 att_0_4: x_0,4 - 5 y_0,4 <= 0
 att_1_0: x_1,0 - 5 y_1,0 <= 0
 att_1_2: x_1,2 - 5 y_1,2 <= 0
 att_1_3: x_1,3 - 5 y_1,3 <= 0
 att_1_4: x_1,4 - 5 y_1,4 <= 0
 att_2_0: x_2,0 - 5 y_2,0 <= 0
 att_2_1: x_2,1 - 5 y_2,1 <= 0
 att_2_3: x_2,3 - 5 y_2,3 <= 0
 att_2_4: x_2,4 - 5 y_2,4 <= 0
 att_3_0: x_3,0 - 5 y_3,0 <= 0
 att_3_1: x_3,1 - 5 y_3,1 <= 0
 att_3_2: x_3,2 - 5 y_3,2 <= 0
 att_3_4: x_3,4 - 5 y_3,4 <= 0
 att_4_0: x_4,0 - 5 y_4,0 <= 0
 att_4_1: x_4,1 - 5 y_4,1 <= 0
 att_4_2: x_4,2 - 5 y_4,2 <= 0
 att_4_3: x_4,3 - 5 y_4,3 <= 0
Bounds
      x_0,1 >= 0
      x_0,2 >= 0
      x_0,3 >= 0
      x_0,4 >= 0
      x_1,0 >= 0
      x_1,2 >= 0
      x_1,3 >= 0
      x_1,4 >= 0
      x_2,0 >= 0
      x_2,1 >= 0
      x_2,3 >= 0
      x_2,4 >= 0
      x_3,0 >= 0
      x_3,1 >= 0
      x_3,2 >= 0
      x_3,4 >= 0
      x_4,0 >= 0
      x_4,1 >= 0
      x_4,2 >= 0
      x_4,3 >= 0
 0 <= y_0,1 <= Inf
 0 <= y_0,2 <= Inf
 0 <= y_0,3 <= Inf
 0 <= y_0,4 <= Inf
 0 <= y_1,0 <= Inf
 0 <= y_1,2 <= Inf
 0 <= y_1,3 <= Inf
 0 <= y_1,4 <= Inf
 0 <= y_2,0 <= Inf
 0 <= y_2,1 <= Inf
 0 <= y_2,3 <= Inf
 0 <= y_2,4 <= Inf
 0 <= y_3,0 <= Inf
 0 <= y_3,1 <= Inf
 0 <= y_3,2 <= Inf
 0 <= y_3,4 <= Inf
 0 <= y_4,0 <= Inf
 0 <= y_4,1 <= Inf
 0 <= y_4,2 <= Inf
 0 <= y_4,3 <= Inf
Binaries
 y_0,1  y_0,2  y_0,3  y_0,4  y_1,0  y_1,2  y_1,3  y_1,4  y_2,0  y_2,1  y_2,3 
 y_2,4  y_3,0  y_3,1  y_3,2  y_3,4  y_4,0  y_4,1  y_4,2  y_4,3 
Generals
 x_0,1  x_0,2  x_0,3  x_0,4  x_1,0  x_1,2  x_1,3  x_1,4  x_2,0  x_2,1  x_2,3 
 x_2,4  x_3,0  x_3,1  x_3,2  x_3,4  x_4,0  x_4,1  x_4,2  x_4,3 
End
